certificates/rado_a15_c236_N40.drat
-36 -38 -40 0
-38 -39 -40 0
-39 -40 0
d -38 -39 -40 0
16 -40 0
-40 0
14 0
-16 17 0
10 17 0
d 10 29 17 0
17 0
-36 0
-33 0
16 0
-12 0
-20 0
-10 0
-18 0
-13 0
-35 0
-21 0
15 0
2 0
6 0
1 0
-4 0
-26 0
-3 0
-25 0
-34 0
-28 0
0
